(set-logic QF_LRA)
(declare-fun X0 () Real )
(declare-fun Y0 () Real )
(declare-fun X1 () Real )
(declare-fun Y1 () Real )
(declare-fun X2 () Real )
(declare-fun Y2 () Real )
(declare-fun X3 () Real )
(declare-fun Y3 () Real )
(declare-fun X4 () Real )
(declare-fun Y4 () Real )
(declare-fun X5 () Real )
(declare-fun Y5 () Real )
(declare-fun X6 () Real )
(declare-fun Y6 () Real )
(declare-fun X7 () Real )
(declare-fun Y7 () Real )
(declare-fun X8 () Real )
(declare-fun Y8 () Real )
(declare-fun X9 () Real )
(declare-fun Y9 () Real )
(declare-fun X10 () Real )
(declare-fun Y10 () Real )
(declare-fun X11 () Real )
(declare-fun Y11 () Real )
(declare-fun X12 () Real )
(declare-fun Y12 () Real )
(declare-fun X13 () Real )
(declare-fun Y13 () Real )
(declare-fun X14 () Real )
(declare-fun Y14 () Real )
(declare-fun Z () Real )
(assert ( and  
( or ( <= ( + X0 16 ) X1 )  ( <= ( + X1 95 ) X0 )  ( <= ( + Y0 53 ) Y1 )  ( <= ( + Y1 99 ) Y0 )  )
( or ( <= ( + X0 16 ) X2 )  ( <= ( + X2 43 ) X0 )  ( <= ( + Y0 53 ) Y2 )  ( <= ( + Y2 57 ) Y0 )  )
( or ( <= ( + X0 16 ) X3 )  ( <= ( + X3 66 ) X0 )  ( <= ( + Y0 53 ) Y3 )  ( <= ( + Y3 35 ) Y0 )  )
( or ( <= ( + X0 16 ) X4 )  ( <= ( + X4 45 ) X0 )  ( <= ( + Y0 53 ) Y4 )  ( <= ( + Y4 6 ) Y0 )  )
( or ( <= ( + X0 16 ) X5 )  ( <= ( + X5 83 ) X0 )  ( <= ( + Y0 53 ) Y5 )  ( <= ( + Y5 27 ) Y0 )  )
( or ( <= ( + X0 16 ) X6 )  ( <= ( + X6 17 ) X0 )  ( <= ( + Y0 53 ) Y6 )  ( <= ( + Y6 49 ) Y0 )  )
( or ( <= ( + X0 16 ) X7 )  ( <= ( + X7 96 ) X0 )  ( <= ( + Y0 53 ) Y7 )  ( <= ( + Y7 45 ) Y0 )  )
( or ( <= ( + X0 16 ) X8 )  ( <= ( + X8 38 ) X0 )  ( <= ( + Y0 53 ) Y8 )  ( <= ( + Y8 25 ) Y0 )  )
( or ( <= ( + X0 16 ) X9 )  ( <= ( + X9 84 ) X0 )  ( <= ( + Y0 53 ) Y9 )  ( <= ( + Y9 66 ) Y0 )  )
( or ( <= ( + X0 16 ) X10 )  ( <= ( + X10 80 ) X0 )  ( <= ( + Y0 53 ) Y10 )  ( <= ( + Y10 64 ) Y0 )  )
( or ( <= ( + X0 16 ) X11 )  ( <= ( + X11 5 ) X0 )  ( <= ( + Y0 53 ) Y11 )  ( <= ( + Y11 72 ) Y0 )  )
( or ( <= ( + X0 16 ) X12 )  ( <= ( + X12 95 ) X0 )  ( <= ( + Y0 53 ) Y12 )  ( <= ( + Y12 91 ) Y0 )  )
( or ( <= ( + X0 16 ) X13 )  ( <= ( + X13 82 ) X0 )  ( <= ( + Y0 53 ) Y13 )  ( <= ( + Y13 7 ) Y0 )  )
( or ( <= ( + X0 16 ) X14 )  ( <= ( + X14 1 ) X0 )  ( <= ( + Y0 53 ) Y14 )  ( <= ( + Y14 9 ) Y0 )  )
( or ( <= ( + X1 95 ) X2 )  ( <= ( + X2 43 ) X1 )  ( <= ( + Y1 99 ) Y2 )  ( <= ( + Y2 57 ) Y1 )  )
( or ( <= ( + X1 95 ) X3 )  ( <= ( + X3 66 ) X1 )  ( <= ( + Y1 99 ) Y3 )  ( <= ( + Y3 35 ) Y1 )  )
( or ( <= ( + X1 95 ) X4 )  ( <= ( + X4 45 ) X1 )  ( <= ( + Y1 99 ) Y4 )  ( <= ( + Y4 6 ) Y1 )  )
( or ( <= ( + X1 95 ) X5 )  ( <= ( + X5 83 ) X1 )  ( <= ( + Y1 99 ) Y5 )  ( <= ( + Y5 27 ) Y1 )  )
( or ( <= ( + X1 95 ) X6 )  ( <= ( + X6 17 ) X1 )  ( <= ( + Y1 99 ) Y6 )  ( <= ( + Y6 49 ) Y1 )  )
( or ( <= ( + X1 95 ) X7 )  ( <= ( + X7 96 ) X1 )  ( <= ( + Y1 99 ) Y7 )  ( <= ( + Y7 45 ) Y1 )  )
( or ( <= ( + X1 95 ) X8 )  ( <= ( + X8 38 ) X1 )  ( <= ( + Y1 99 ) Y8 )  ( <= ( + Y8 25 ) Y1 )  )
( or ( <= ( + X1 95 ) X9 )  ( <= ( + X9 84 ) X1 )  ( <= ( + Y1 99 ) Y9 )  ( <= ( + Y9 66 ) Y1 )  )
( or ( <= ( + X1 95 ) X10 )  ( <= ( + X10 80 ) X1 )  ( <= ( + Y1 99 ) Y10 )  ( <= ( + Y10 64 ) Y1 )  )
( or ( <= ( + X1 95 ) X11 )  ( <= ( + X11 5 ) X1 )  ( <= ( + Y1 99 ) Y11 )  ( <= ( + Y11 72 ) Y1 )  )
( or ( <= ( + X1 95 ) X12 )  ( <= ( + X12 95 ) X1 )  ( <= ( + Y1 99 ) Y12 )  ( <= ( + Y12 91 ) Y1 )  )
( or ( <= ( + X1 95 ) X13 )  ( <= ( + X13 82 ) X1 )  ( <= ( + Y1 99 ) Y13 )  ( <= ( + Y13 7 ) Y1 )  )
( or ( <= ( + X1 95 ) X14 )  ( <= ( + X14 1 ) X1 )  ( <= ( + Y1 99 ) Y14 )  ( <= ( + Y14 9 ) Y1 )  )
( or ( <= ( + X2 43 ) X3 )  ( <= ( + X3 66 ) X2 )  ( <= ( + Y2 57 ) Y3 )  ( <= ( + Y3 35 ) Y2 )  )
( or ( <= ( + X2 43 ) X4 )  ( <= ( + X4 45 ) X2 )  ( <= ( + Y2 57 ) Y4 )  ( <= ( + Y4 6 ) Y2 )  )
( or ( <= ( + X2 43 ) X5 )  ( <= ( + X5 83 ) X2 )  ( <= ( + Y2 57 ) Y5 )  ( <= ( + Y5 27 ) Y2 )  )
( or ( <= ( + X2 43 ) X6 )  ( <= ( + X6 17 ) X2 )  ( <= ( + Y2 57 ) Y6 )  ( <= ( + Y6 49 ) Y2 )  )
( or ( <= ( + X2 43 ) X7 )  ( <= ( + X7 96 ) X2 )  ( <= ( + Y2 57 ) Y7 )  ( <= ( + Y7 45 ) Y2 )  )
( or ( <= ( + X2 43 ) X8 )  ( <= ( + X8 38 ) X2 )  ( <= ( + Y2 57 ) Y8 )  ( <= ( + Y8 25 ) Y2 )  )
( or ( <= ( + X2 43 ) X9 )  ( <= ( + X9 84 ) X2 )  ( <= ( + Y2 57 ) Y9 )  ( <= ( + Y9 66 ) Y2 )  )
( or ( <= ( + X2 43 ) X10 )  ( <= ( + X10 80 ) X2 )  ( <= ( + Y2 57 ) Y10 )  ( <= ( + Y10 64 ) Y2 )  )
( or ( <= ( + X2 43 ) X11 )  ( <= ( + X11 5 ) X2 )  ( <= ( + Y2 57 ) Y11 )  ( <= ( + Y11 72 ) Y2 )  )
( or ( <= ( + X2 43 ) X12 )  ( <= ( + X12 95 ) X2 )  ( <= ( + Y2 57 ) Y12 )  ( <= ( + Y12 91 ) Y2 )  )
( or ( <= ( + X2 43 ) X13 )  ( <= ( + X13 82 ) X2 )  ( <= ( + Y2 57 ) Y13 )  ( <= ( + Y13 7 ) Y2 )  )
( or ( <= ( + X2 43 ) X14 )  ( <= ( + X14 1 ) X2 )  ( <= ( + Y2 57 ) Y14 )  ( <= ( + Y14 9 ) Y2 )  )
( or ( <= ( + X3 66 ) X4 )  ( <= ( + X4 45 ) X3 )  ( <= ( + Y3 35 ) Y4 )  ( <= ( + Y4 6 ) Y3 )  )
( or ( <= ( + X3 66 ) X5 )  ( <= ( + X5 83 ) X3 )  ( <= ( + Y3 35 ) Y5 )  ( <= ( + Y5 27 ) Y3 )  )
( or ( <= ( + X3 66 ) X6 )  ( <= ( + X6 17 ) X3 )  ( <= ( + Y3 35 ) Y6 )  ( <= ( + Y6 49 ) Y3 )  )
( or ( <= ( + X3 66 ) X7 )  ( <= ( + X7 96 ) X3 )  ( <= ( + Y3 35 ) Y7 )  ( <= ( + Y7 45 ) Y3 )  )
( or ( <= ( + X3 66 ) X8 )  ( <= ( + X8 38 ) X3 )  ( <= ( + Y3 35 ) Y8 )  ( <= ( + Y8 25 ) Y3 )  )
( or ( <= ( + X3 66 ) X9 )  ( <= ( + X9 84 ) X3 )  ( <= ( + Y3 35 ) Y9 )  ( <= ( + Y9 66 ) Y3 )  )
( or ( <= ( + X3 66 ) X10 )  ( <= ( + X10 80 ) X3 )  ( <= ( + Y3 35 ) Y10 )  ( <= ( + Y10 64 ) Y3 )  )
( or ( <= ( + X3 66 ) X11 )  ( <= ( + X11 5 ) X3 )  ( <= ( + Y3 35 ) Y11 )  ( <= ( + Y11 72 ) Y3 )  )
( or ( <= ( + X3 66 ) X12 )  ( <= ( + X12 95 ) X3 )  ( <= ( + Y3 35 ) Y12 )  ( <= ( + Y12 91 ) Y3 )  )
( or ( <= ( + X3 66 ) X13 )  ( <= ( + X13 82 ) X3 )  ( <= ( + Y3 35 ) Y13 )  ( <= ( + Y13 7 ) Y3 )  )
( or ( <= ( + X3 66 ) X14 )  ( <= ( + X14 1 ) X3 )  ( <= ( + Y3 35 ) Y14 )  ( <= ( + Y14 9 ) Y3 )  )
( or ( <= ( + X4 45 ) X5 )  ( <= ( + X5 83 ) X4 )  ( <= ( + Y4 6 ) Y5 )  ( <= ( + Y5 27 ) Y4 )  )
( or ( <= ( + X4 45 ) X6 )  ( <= ( + X6 17 ) X4 )  ( <= ( + Y4 6 ) Y6 )  ( <= ( + Y6 49 ) Y4 )  )
( or ( <= ( + X4 45 ) X7 )  ( <= ( + X7 96 ) X4 )  ( <= ( + Y4 6 ) Y7 )  ( <= ( + Y7 45 ) Y4 )  )
( or ( <= ( + X4 45 ) X8 )  ( <= ( + X8 38 ) X4 )  ( <= ( + Y4 6 ) Y8 )  ( <= ( + Y8 25 ) Y4 )  )
( or ( <= ( + X4 45 ) X9 )  ( <= ( + X9 84 ) X4 )  ( <= ( + Y4 6 ) Y9 )  ( <= ( + Y9 66 ) Y4 )  )
( or ( <= ( + X4 45 ) X10 )  ( <= ( + X10 80 ) X4 )  ( <= ( + Y4 6 ) Y10 )  ( <= ( + Y10 64 ) Y4 )  )
( or ( <= ( + X4 45 ) X11 )  ( <= ( + X11 5 ) X4 )  ( <= ( + Y4 6 ) Y11 )  ( <= ( + Y11 72 ) Y4 )  )
( or ( <= ( + X4 45 ) X12 )  ( <= ( + X12 95 ) X4 )  ( <= ( + Y4 6 ) Y12 )  ( <= ( + Y12 91 ) Y4 )  )
( or ( <= ( + X4 45 ) X13 )  ( <= ( + X13 82 ) X4 )  ( <= ( + Y4 6 ) Y13 )  ( <= ( + Y13 7 ) Y4 )  )
( or ( <= ( + X4 45 ) X14 )  ( <= ( + X14 1 ) X4 )  ( <= ( + Y4 6 ) Y14 )  ( <= ( + Y14 9 ) Y4 )  )
( or ( <= ( + X5 83 ) X6 )  ( <= ( + X6 17 ) X5 )  ( <= ( + Y5 27 ) Y6 )  ( <= ( + Y6 49 ) Y5 )  )
( or ( <= ( + X5 83 ) X7 )  ( <= ( + X7 96 ) X5 )  ( <= ( + Y5 27 ) Y7 )  ( <= ( + Y7 45 ) Y5 )  )
( or ( <= ( + X5 83 ) X8 )  ( <= ( + X8 38 ) X5 )  ( <= ( + Y5 27 ) Y8 )  ( <= ( + Y8 25 ) Y5 )  )
( or ( <= ( + X5 83 ) X9 )  ( <= ( + X9 84 ) X5 )  ( <= ( + Y5 27 ) Y9 )  ( <= ( + Y9 66 ) Y5 )  )
( or ( <= ( + X5 83 ) X10 )  ( <= ( + X10 80 ) X5 )  ( <= ( + Y5 27 ) Y10 )  ( <= ( + Y10 64 ) Y5 )  )
( or ( <= ( + X5 83 ) X11 )  ( <= ( + X11 5 ) X5 )  ( <= ( + Y5 27 ) Y11 )  ( <= ( + Y11 72 ) Y5 )  )
( or ( <= ( + X5 83 ) X12 )  ( <= ( + X12 95 ) X5 )  ( <= ( + Y5 27 ) Y12 )  ( <= ( + Y12 91 ) Y5 )  )
( or ( <= ( + X5 83 ) X13 )  ( <= ( + X13 82 ) X5 )  ( <= ( + Y5 27 ) Y13 )  ( <= ( + Y13 7 ) Y5 )  )
( or ( <= ( + X5 83 ) X14 )  ( <= ( + X14 1 ) X5 )  ( <= ( + Y5 27 ) Y14 )  ( <= ( + Y14 9 ) Y5 )  )
( or ( <= ( + X6 17 ) X7 )  ( <= ( + X7 96 ) X6 )  ( <= ( + Y6 49 ) Y7 )  ( <= ( + Y7 45 ) Y6 )  )
( or ( <= ( + X6 17 ) X8 )  ( <= ( + X8 38 ) X6 )  ( <= ( + Y6 49 ) Y8 )  ( <= ( + Y8 25 ) Y6 )  )
( or ( <= ( + X6 17 ) X9 )  ( <= ( + X9 84 ) X6 )  ( <= ( + Y6 49 ) Y9 )  ( <= ( + Y9 66 ) Y6 )  )
( or ( <= ( + X6 17 ) X10 )  ( <= ( + X10 80 ) X6 )  ( <= ( + Y6 49 ) Y10 )  ( <= ( + Y10 64 ) Y6 )  )
( or ( <= ( + X6 17 ) X11 )  ( <= ( + X11 5 ) X6 )  ( <= ( + Y6 49 ) Y11 )  ( <= ( + Y11 72 ) Y6 )  )
( or ( <= ( + X6 17 ) X12 )  ( <= ( + X12 95 ) X6 )  ( <= ( + Y6 49 ) Y12 )  ( <= ( + Y12 91 ) Y6 )  )
( or ( <= ( + X6 17 ) X13 )  ( <= ( + X13 82 ) X6 )  ( <= ( + Y6 49 ) Y13 )  ( <= ( + Y13 7 ) Y6 )  )
( or ( <= ( + X6 17 ) X14 )  ( <= ( + X14 1 ) X6 )  ( <= ( + Y6 49 ) Y14 )  ( <= ( + Y14 9 ) Y6 )  )
( or ( <= ( + X7 96 ) X8 )  ( <= ( + X8 38 ) X7 )  ( <= ( + Y7 45 ) Y8 )  ( <= ( + Y8 25 ) Y7 )  )
( or ( <= ( + X7 96 ) X9 )  ( <= ( + X9 84 ) X7 )  ( <= ( + Y7 45 ) Y9 )  ( <= ( + Y9 66 ) Y7 )  )
( or ( <= ( + X7 96 ) X10 )  ( <= ( + X10 80 ) X7 )  ( <= ( + Y7 45 ) Y10 )  ( <= ( + Y10 64 ) Y7 )  )
( or ( <= ( + X7 96 ) X11 )  ( <= ( + X11 5 ) X7 )  ( <= ( + Y7 45 ) Y11 )  ( <= ( + Y11 72 ) Y7 )  )
( or ( <= ( + X7 96 ) X12 )  ( <= ( + X12 95 ) X7 )  ( <= ( + Y7 45 ) Y12 )  ( <= ( + Y12 91 ) Y7 )  )
( or ( <= ( + X7 96 ) X13 )  ( <= ( + X13 82 ) X7 )  ( <= ( + Y7 45 ) Y13 )  ( <= ( + Y13 7 ) Y7 )  )
( or ( <= ( + X7 96 ) X14 )  ( <= ( + X14 1 ) X7 )  ( <= ( + Y7 45 ) Y14 )  ( <= ( + Y14 9 ) Y7 )  )
( or ( <= ( + X8 38 ) X9 )  ( <= ( + X9 84 ) X8 )  ( <= ( + Y8 25 ) Y9 )  ( <= ( + Y9 66 ) Y8 )  )
( or ( <= ( + X8 38 ) X10 )  ( <= ( + X10 80 ) X8 )  ( <= ( + Y8 25 ) Y10 )  ( <= ( + Y10 64 ) Y8 )  )
( or ( <= ( + X8 38 ) X11 )  ( <= ( + X11 5 ) X8 )  ( <= ( + Y8 25 ) Y11 )  ( <= ( + Y11 72 ) Y8 )  )
( or ( <= ( + X8 38 ) X12 )  ( <= ( + X12 95 ) X8 )  ( <= ( + Y8 25 ) Y12 )  ( <= ( + Y12 91 ) Y8 )  )
( or ( <= ( + X8 38 ) X13 )  ( <= ( + X13 82 ) X8 )  ( <= ( + Y8 25 ) Y13 )  ( <= ( + Y13 7 ) Y8 )  )
( or ( <= ( + X8 38 ) X14 )  ( <= ( + X14 1 ) X8 )  ( <= ( + Y8 25 ) Y14 )  ( <= ( + Y14 9 ) Y8 )  )
( or ( <= ( + X9 84 ) X10 )  ( <= ( + X10 80 ) X9 )  ( <= ( + Y9 66 ) Y10 )  ( <= ( + Y10 64 ) Y9 )  )
( or ( <= ( + X9 84 ) X11 )  ( <= ( + X11 5 ) X9 )  ( <= ( + Y9 66 ) Y11 )  ( <= ( + Y11 72 ) Y9 )  )
( or ( <= ( + X9 84 ) X12 )  ( <= ( + X12 95 ) X9 )  ( <= ( + Y9 66 ) Y12 )  ( <= ( + Y12 91 ) Y9 )  )
( or ( <= ( + X9 84 ) X13 )  ( <= ( + X13 82 ) X9 )  ( <= ( + Y9 66 ) Y13 )  ( <= ( + Y13 7 ) Y9 )  )
( or ( <= ( + X9 84 ) X14 )  ( <= ( + X14 1 ) X9 )  ( <= ( + Y9 66 ) Y14 )  ( <= ( + Y14 9 ) Y9 )  )
( or ( <= ( + X10 80 ) X11 )  ( <= ( + X11 5 ) X10 )  ( <= ( + Y10 64 ) Y11 )  ( <= ( + Y11 72 ) Y10 )  )
( or ( <= ( + X10 80 ) X12 )  ( <= ( + X12 95 ) X10 )  ( <= ( + Y10 64 ) Y12 )  ( <= ( + Y12 91 ) Y10 )  )
( or ( <= ( + X10 80 ) X13 )  ( <= ( + X13 82 ) X10 )  ( <= ( + Y10 64 ) Y13 )  ( <= ( + Y13 7 ) Y10 )  )
( or ( <= ( + X10 80 ) X14 )  ( <= ( + X14 1 ) X10 )  ( <= ( + Y10 64 ) Y14 )  ( <= ( + Y14 9 ) Y10 )  )
( or ( <= ( + X11 5 ) X12 )  ( <= ( + X12 95 ) X11 )  ( <= ( + Y11 72 ) Y12 )  ( <= ( + Y12 91 ) Y11 )  )
( or ( <= ( + X11 5 ) X13 )  ( <= ( + X13 82 ) X11 )  ( <= ( + Y11 72 ) Y13 )  ( <= ( + Y13 7 ) Y11 )  )
( or ( <= ( + X11 5 ) X14 )  ( <= ( + X14 1 ) X11 )  ( <= ( + Y11 72 ) Y14 )  ( <= ( + Y14 9 ) Y11 )  )
( or ( <= ( + X12 95 ) X13 )  ( <= ( + X13 82 ) X12 )  ( <= ( + Y12 91 ) Y13 )  ( <= ( + Y13 7 ) Y12 )  )
( or ( <= ( + X12 95 ) X14 )  ( <= ( + X14 1 ) X12 )  ( <= ( + Y12 91 ) Y14 )  ( <= ( + Y14 9 ) Y12 )  )
( or ( <= ( + X13 82 ) X14 )  ( <= ( + X14 1 ) X13 )  ( <= ( + Y13 7 ) Y14 )  ( <= ( + Y14 9 ) Y13 )  )
( >= X0 0)
( <= ( + X0 16) Z)
( >= Y0 0)
( <= ( + Y0 53 ) 100)
( >= X1 0)
( <= ( + X1 95) Z)
( >= Y1 0)
( <= ( + Y1 99 ) 100)
( >= X2 0)
( <= ( + X2 43) Z)
( >= Y2 0)
( <= ( + Y2 57 ) 100)
( >= X3 0)
( <= ( + X3 66) Z)
( >= Y3 0)
( <= ( + Y3 35 ) 100)
( >= X4 0)
( <= ( + X4 45) Z)
( >= Y4 0)
( <= ( + Y4 6 ) 100)
( >= X5 0)
( <= ( + X5 83) Z)
( >= Y5 0)
( <= ( + Y5 27 ) 100)
( >= X6 0)
( <= ( + X6 17) Z)
( >= Y6 0)
( <= ( + Y6 49 ) 100)
( >= X7 0)
( <= ( + X7 96) Z)
( >= Y7 0)
( <= ( + Y7 45 ) 100)
( >= X8 0)
( <= ( + X8 38) Z)
( >= Y8 0)
( <= ( + Y8 25 ) 100)
( >= X9 0)
( <= ( + X9 84) Z)
( >= Y9 0)
( <= ( + Y9 66 ) 100)
( >= X10 0)
( <= ( + X10 80) Z)
( >= Y10 0)
( <= ( + Y10 64 ) 100)
( >= X11 0)
( <= ( + X11 5) Z)
( >= Y11 0)
( <= ( + Y11 72 ) 100)
( >= X12 0)
( <= ( + X12 95) Z)
( >= Y12 0)
( <= ( + Y12 91 ) 100)
( >= X13 0)
( <= ( + X13 82) Z)
( >= Y13 0)
( <= ( + Y13 7 ) 100)
( >= X14 0)
( <= ( + X14 1) Z)
( >= Y14 0)
( <= ( + Y14 9 ) 100)
) )
(minimize Z)
(check-sat)
